p cnf 225 576
w 1 1
w 2 0.880797
w 3 0.880797
w 4 1
w 5 0.880797
w 6 0.880797
w 7 1
w 8 0.880797
w 9 0.880797
w 10 1
w 11 0.880797
w 12 0.880797
w 13 1
w 14 0.880797
w 15 0.880797
w 16 1
w 17 0.880797
w 18 0.880797
w 19 1
w 20 0.880797
w 21 0.880797
w 22 1
w 23 0.880797
w 24 0.880797
w 25 1
w 26 0.880797
w 27 1
w 28 0.880797
w 29 0.880797
w 30 1
w 31 0.880797
w 32 0.880797
w 33 1
w 34 0.880797
w 35 0.880797
w 36 1
w 37 0.880797
w 38 0.880797
w 39 1
w 40 0.880797
w 41 0.880797
w 42 1
w 43 0.880797
w 44 0.880797
w 45 1
w 46 0.880797
w 47 0.880797
w 48 1
w 49 0.880797
w 50 0.880797
w 51 1
w 52 0.880797
w 53 1
w 54 0.880797
w 55 0.880797
w 56 1
w 57 0.880797
w 58 0.880797
w 59 1
w 60 0.880797
w 61 0.880797
w 62 1
w 63 0.880797
w 64 0.880797
w 65 1
w 66 0.880797
w 67 0.880797
w 68 1
w 69 0.880797
w 70 0.880797
w 71 1
w 72 0.880797
w 73 0.880797
w 74 1
w 75 0.880797
w 76 0.880797
w 77 1
w 78 0.880797
w 79 1
w 80 0.880797
w 81 0.880797
w 82 1
w 83 0.880797
w 84 0.880797
w 85 1
w 86 0.880797
w 87 0.880797
w 88 1
w 89 0.880797
w 90 0.880797
w 91 1
w 92 0.880797
w 93 0.880797
w 94 1
w 95 0.880797
w 96 0.880797
w 97 1
w 98 0.880797
w 99 0.880797
w 100 1
w 101 0.880797
w 102 0.880797
w 103 1
w 104 0.880797
w 105 1
w 106 0.880797
w 107 0.880797
w 108 1
w 109 0.880797
w 110 0.880797
w 111 1
w 112 0.880797
w 113 0.880797
w 114 1
w 115 0.880797
w 116 0.880797
w 117 1
w 118 0.880797
w 119 0.880797
w 120 1
w 121 0.880797
w 122 0.880797
w 123 1
w 124 0.880797
w 125 0.880797
w 126 1
w 127 0.880797
w 128 0.880797
w 129 1
w 130 0.880797
w 131 1
w 132 0.880797
w 133 0.880797
w 134 1
w 135 0.880797
w 136 0.880797
w 137 1
w 138 0.880797
w 139 0.880797
w 140 1
w 141 0.880797
w 142 0.880797
w 143 1
w 144 0.880797
w 145 0.880797
w 146 1
w 147 0.880797
w 148 0.880797
w 149 1
w 150 0.880797
w 151 0.880797
w 152 1
w 153 0.880797
w 154 0.880797
w 155 1
w 156 0.880797
w 157 1
w 158 0.880797
w 159 0.880797
w 160 1
w 161 0.880797
w 162 0.880797
w 163 1
w 164 0.880797
w 165 0.880797
w 166 1
w 167 0.880797
w 168 0.880797
w 169 1
w 170 0.880797
w 171 0.880797
w 172 1
w 173 0.880797
w 174 0.880797
w 175 1
w 176 0.880797
w 177 0.880797
w 178 1
w 179 0.880797
w 180 0.880797
w 181 1
w 182 0.880797
w 183 1
w 184 0.880797
w 185 0.880797
w 186 1
w 187 0.880797
w 188 0.880797
w 189 1
w 190 0.880797
w 191 0.880797
w 192 1
w 193 0.880797
w 194 0.880797
w 195 1
w 196 0.880797
w 197 0.880797
w 198 1
w 199 0.880797
w 200 0.880797
w 201 1
w 202 0.880797
w 203 0.880797
w 204 1
w 205 0.880797
w 206 0.880797
w 207 1
w 208 0.880797
w 209 1
w 210 0.880797
w 211 1
w 212 0.880797
w 213 1
w 214 0.880797
w 215 1
w 216 0.880797
w 217 1
w 218 0.880797
w 219 1
w 220 0.880797
w 221 1
w 222 0.880797
w 223 1
w 224 0.880797
w 225 1
2 1 4 0
2 -1 -4 0
-2 1 -4 0
-2 -1 4 0
3 1 27 0
3 -1 -27 0
-3 1 -27 0
-3 -1 27 0
5 4 7 0
5 -4 -7 0
-5 4 -7 0
-5 -4 7 0
6 4 30 0
6 -4 -30 0
-6 4 -30 0
-6 -4 30 0
8 7 10 0
8 -7 -10 0
-8 7 -10 0
-8 -7 10 0
9 7 33 0
9 -7 -33 0
-9 7 -33 0
-9 -7 33 0
11 10 13 0
11 -10 -13 0
-11 10 -13 0
-11 -10 13 0
12 10 36 0
12 -10 -36 0
-12 10 -36 0
-12 -10 36 0
14 13 16 0
14 -13 -16 0
-14 13 -16 0
-14 -13 16 0
15 13 39 0
15 -13 -39 0
-15 13 -39 0
-15 -13 39 0
17 16 19 0
17 -16 -19 0
-17 16 -19 0
-17 -16 19 0
18 16 42 0
18 -16 -42 0
-18 16 -42 0
-18 -16 42 0
20 19 22 0
20 -19 -22 0
-20 19 -22 0
-20 -19 22 0
21 19 45 0
21 -19 -45 0
-21 19 -45 0
-21 -19 45 0
23 22 25 0
23 -22 -25 0
-23 22 -25 0
-23 -22 25 0
24 22 48 0
24 -22 -48 0
-24 22 -48 0
-24 -22 48 0
26 25 51 0
26 -25 -51 0
-26 25 -51 0
-26 -25 51 0
28 27 30 0
28 -27 -30 0
-28 27 -30 0
-28 -27 30 0
29 27 53 0
29 -27 -53 0
-29 27 -53 0
-29 -27 53 0
31 30 33 0
31 -30 -33 0
-31 30 -33 0
-31 -30 33 0
32 30 56 0
32 -30 -56 0
-32 30 -56 0
-32 -30 56 0
34 33 36 0
34 -33 -36 0
-34 33 -36 0
-34 -33 36 0
35 33 59 0
35 -33 -59 0
-35 33 -59 0
-35 -33 59 0
37 36 39 0
37 -36 -39 0
-37 36 -39 0
-37 -36 39 0
38 36 62 0
38 -36 -62 0
-38 36 -62 0
-38 -36 62 0
40 39 42 0
40 -39 -42 0
-40 39 -42 0
-40 -39 42 0
41 39 65 0
41 -39 -65 0
-41 39 -65 0
-41 -39 65 0
43 42 45 0
43 -42 -45 0
-43 42 -45 0
-43 -42 45 0
44 42 68 0
44 -42 -68 0
-44 42 -68 0
-44 -42 68 0
46 45 48 0
46 -45 -48 0
-46 45 -48 0
-46 -45 48 0
47 45 71 0
47 -45 -71 0
-47 45 -71 0
-47 -45 71 0
49 48 51 0
49 -48 -51 0
-49 48 -51 0
-49 -48 51 0
50 48 74 0
50 -48 -74 0
-50 48 -74 0
-50 -48 74 0
52 51 77 0
52 -51 -77 0
-52 51 -77 0
-52 -51 77 0
54 53 56 0
54 -53 -56 0
-54 53 -56 0
-54 -53 56 0
55 53 79 0
55 -53 -79 0
-55 53 -79 0
-55 -53 79 0
57 56 59 0
57 -56 -59 0
-57 56 -59 0
-57 -56 59 0
58 56 82 0
58 -56 -82 0
-58 56 -82 0
-58 -56 82 0
60 59 62 0
60 -59 -62 0
-60 59 -62 0
-60 -59 62 0
61 59 85 0
61 -59 -85 0
-61 59 -85 0
-61 -59 85 0
63 62 65 0
63 -62 -65 0
-63 62 -65 0
-63 -62 65 0
64 62 88 0
64 -62 -88 0
-64 62 -88 0
-64 -62 88 0
66 65 68 0
66 -65 -68 0
-66 65 -68 0
-66 -65 68 0
67 65 91 0
67 -65 -91 0
-67 65 -91 0
-67 -65 91 0
69 68 71 0
69 -68 -71 0
-69 68 -71 0
-69 -68 71 0
70 68 94 0
70 -68 -94 0
-70 68 -94 0
-70 -68 94 0
72 71 74 0
72 -71 -74 0
-72 71 -74 0
-72 -71 74 0
73 71 97 0
73 -71 -97 0
-73 71 -97 0
-73 -71 97 0
75 74 77 0
75 -74 -77 0
-75 74 -77 0
-75 -74 77 0
76 74 100 0
76 -74 -100 0
-76 74 -100 0
-76 -74 100 0
78 77 103 0
78 -77 -103 0
-78 77 -103 0
-78 -77 103 0
80 79 82 0
80 -79 -82 0
-80 79 -82 0
-80 -79 82 0
81 79 105 0
81 -79 -105 0
-81 79 -105 0
-81 -79 105 0
83 82 85 0
83 -82 -85 0
-83 82 -85 0
-83 -82 85 0
84 82 108 0
84 -82 -108 0
-84 82 -108 0
-84 -82 108 0
86 85 88 0
86 -85 -88 0
-86 85 -88 0
-86 -85 88 0
87 85 111 0
87 -85 -111 0
-87 85 -111 0
-87 -85 111 0
89 88 91 0
89 -88 -91 0
-89 88 -91 0
-89 -88 91 0
90 88 114 0
90 -88 -114 0
-90 88 -114 0
-90 -88 114 0
92 91 94 0
92 -91 -94 0
-92 91 -94 0
-92 -91 94 0
93 91 117 0
93 -91 -117 0
-93 91 -117 0
-93 -91 117 0
95 94 97 0
95 -94 -97 0
-95 94 -97 0
-95 -94 97 0
96 94 120 0
96 -94 -120 0
-96 94 -120 0
-96 -94 120 0
98 97 100 0
98 -97 -100 0
-98 97 -100 0
-98 -97 100 0
99 97 123 0
99 -97 -123 0
-99 97 -123 0
-99 -97 123 0
101 100 103 0
101 -100 -103 0
-101 100 -103 0
-101 -100 103 0
102 100 126 0
102 -100 -126 0
-102 100 -126 0
-102 -100 126 0
104 103 129 0
104 -103 -129 0
-104 103 -129 0
-104 -103 129 0
106 105 108 0
106 -105 -108 0
-106 105 -108 0
-106 -105 108 0
107 105 131 0
107 -105 -131 0
-107 105 -131 0
-107 -105 131 0
109 108 111 0
109 -108 -111 0
-109 108 -111 0
-109 -108 111 0
110 108 134 0
110 -108 -134 0
-110 108 -134 0
-110 -108 134 0
112 111 114 0
112 -111 -114 0
-112 111 -114 0
-112 -111 114 0
113 111 137 0
113 -111 -137 0
-113 111 -137 0
-113 -111 137 0
115 114 117 0
115 -114 -117 0
-115 114 -117 0
-115 -114 117 0
116 114 140 0
116 -114 -140 0
-116 114 -140 0
-116 -114 140 0
118 117 120 0
118 -117 -120 0
-118 117 -120 0
-118 -117 120 0
119 117 143 0
119 -117 -143 0
-119 117 -143 0
-119 -117 143 0
121 120 123 0
121 -120 -123 0
-121 120 -123 0
-121 -120 123 0
122 120 146 0
122 -120 -146 0
-122 120 -146 0
-122 -120 146 0
124 123 126 0
124 -123 -126 0
-124 123 -126 0
-124 -123 126 0
125 123 149 0
125 -123 -149 0
-125 123 -149 0
-125 -123 149 0
127 126 129 0
127 -126 -129 0
-127 126 -129 0
-127 -126 129 0
128 126 152 0
128 -126 -152 0
-128 126 -152 0
-128 -126 152 0
130 129 155 0
130 -129 -155 0
-130 129 -155 0
-130 -129 155 0
132 131 134 0
132 -131 -134 0
-132 131 -134 0
-132 -131 134 0
133 131 157 0
133 -131 -157 0
-133 131 -157 0
-133 -131 157 0
135 134 137 0
135 -134 -137 0
-135 134 -137 0
-135 -134 137 0
136 134 160 0
136 -134 -160 0
-136 134 -160 0
-136 -134 160 0
138 137 140 0
138 -137 -140 0
-138 137 -140 0
-138 -137 140 0
139 137 163 0
139 -137 -163 0
-139 137 -163 0
-139 -137 163 0
141 140 143 0
141 -140 -143 0
-141 140 -143 0
-141 -140 143 0
142 140 166 0
142 -140 -166 0
-142 140 -166 0
-142 -140 166 0
144 143 146 0
144 -143 -146 0
-144 143 -146 0
-144 -143 146 0
145 143 169 0
145 -143 -169 0
-145 143 -169 0
-145 -143 169 0
147 146 149 0
147 -146 -149 0
-147 146 -149 0
-147 -146 149 0
148 146 172 0
148 -146 -172 0
-148 146 -172 0
-148 -146 172 0
150 149 152 0
150 -149 -152 0
-150 149 -152 0
-150 -149 152 0
151 149 175 0
151 -149 -175 0
-151 149 -175 0
-151 -149 175 0
153 152 155 0
153 -152 -155 0
-153 152 -155 0
-153 -152 155 0
154 152 178 0
154 -152 -178 0
-154 152 -178 0
-154 -152 178 0
156 155 181 0
156 -155 -181 0
-156 155 -181 0
-156 -155 181 0
158 157 160 0
158 -157 -160 0
-158 157 -160 0
-158 -157 160 0
159 157 183 0
159 -157 -183 0
-159 157 -183 0
-159 -157 183 0
161 160 163 0
161 -160 -163 0
-161 160 -163 0
-161 -160 163 0
162 160 186 0
162 -160 -186 0
-162 160 -186 0
-162 -160 186 0
164 163 166 0
164 -163 -166 0
-164 163 -166 0
-164 -163 166 0
165 163 189 0
165 -163 -189 0
-165 163 -189 0
-165 -163 189 0
167 166 169 0
167 -166 -169 0
-167 166 -169 0
-167 -166 169 0
168 166 192 0
168 -166 -192 0
-168 166 -192 0
-168 -166 192 0
170 169 172 0
170 -169 -172 0
-170 169 -172 0
-170 -169 172 0
171 169 195 0
171 -169 -195 0
-171 169 -195 0
-171 -169 195 0
173 172 175 0
173 -172 -175 0
-173 172 -175 0
-173 -172 175 0
174 172 198 0
174 -172 -198 0
-174 172 -198 0
-174 -172 198 0
176 175 178 0
176 -175 -178 0
-176 175 -178 0
-176 -175 178 0
177 175 201 0
177 -175 -201 0
-177 175 -201 0
-177 -175 201 0
179 178 181 0
179 -178 -181 0
-179 178 -181 0
-179 -178 181 0
180 178 204 0
180 -178 -204 0
-180 178 -204 0
-180 -178 204 0
182 181 207 0
182 -181 -207 0
-182 181 -207 0
-182 -181 207 0
184 183 186 0
184 -183 -186 0
-184 183 -186 0
-184 -183 186 0
185 183 209 0
185 -183 -209 0
-185 183 -209 0
-185 -183 209 0
187 186 189 0
187 -186 -189 0
-187 186 -189 0
-187 -186 189 0
188 186 211 0
188 -186 -211 0
-188 186 -211 0
-188 -186 211 0
190 189 192 0
190 -189 -192 0
-190 189 -192 0
-190 -189 192 0
191 189 213 0
191 -189 -213 0
-191 189 -213 0
-191 -189 213 0
193 192 195 0
193 -192 -195 0
-193 192 -195 0
-193 -192 195 0
194 192 215 0
194 -192 -215 0
-194 192 -215 0
-194 -192 215 0
196 195 198 0
196 -195 -198 0
-196 195 -198 0
-196 -195 198 0
197 195 217 0
197 -195 -217 0
-197 195 -217 0
-197 -195 217 0
199 198 201 0
199 -198 -201 0
-199 198 -201 0
-199 -198 201 0
200 198 219 0
200 -198 -219 0
-200 198 -219 0
-200 -198 219 0
202 201 204 0
202 -201 -204 0
-202 201 -204 0
-202 -201 204 0
203 201 221 0
203 -201 -221 0
-203 201 -221 0
-203 -201 221 0
205 204 207 0
205 -204 -207 0
-205 204 -207 0
-205 -204 207 0
206 204 223 0
206 -204 -223 0
-206 204 -223 0
-206 -204 223 0
208 207 225 0
208 -207 -225 0
-208 207 -225 0
-208 -207 225 0
210 209 211 0
210 -209 -211 0
-210 209 -211 0
-210 -209 211 0
212 211 213 0
212 -211 -213 0
-212 211 -213 0
-212 -211 213 0
214 213 215 0
214 -213 -215 0
-214 213 -215 0
-214 -213 215 0
216 215 217 0
216 -215 -217 0
-216 215 -217 0
-216 -215 217 0
218 217 219 0
218 -217 -219 0
-218 217 -219 0
-218 -217 219 0
220 219 221 0
220 -219 -221 0
-220 219 -221 0
-220 -219 221 0
222 221 223 0
222 -221 -223 0
-222 221 -223 0
-222 -221 223 0
224 223 225 0
224 -223 -225 0
-224 223 -225 0
-224 -223 225 0
